============================[ Problem Statistics ]=============================|                                                                             ||  Number of variables:          4242                                         ||  Number of clauses:            9861                                         ||  Parse time:                   0.27 s                                       ||                                                                             |============================[ Search Statistics ]==============================| Conflicts |          ORIGINAL         |          LEARNT          | Progress ||           |    Vars  Clauses Literals |    Limit  Clauses Lit/Cl |          |===============================================================================|       100 |    1591     6066   398407 |     2224      100     53 | 62.501 % |===============================================================================restarts              : 2conflicts             : 153            (374 /sec)decisions             : 324            (0.00 % random) (792 /sec)propagations          : 9965           (24364 /sec)conflict literals     : 9962           (95.39 % deleted)CPU time              : 0.409 sSATISFIABLE